p cnf 122 441
-1 2 -3 0
1 -2 -3 0
-1 -2 3 0
1 2 3 0
-4 -1 -5 0
4 1 -5 0
-4 1 5 0
4 -1 5 0
-5 1 -6 0
5 -1 -6 0
-5 -1 6 0
5 1 6 0
6 7 -8 0
-6 -7 -8 0
6 -7 8 0
-6 7 8 0
3 8 -9 0
-3 -8 -9 0
3 -8 9 0
-3 8 9 0
-12 -10 0
-12 11 0
10 -11 12 0
-7 5 -14 0
7 -5 -14 0
-7 -5 14 0
7 5 14 0
15 -13 0
15 14 0
13 -14 -15 0
16 -12 0
16 15 0
12 -15 -16 0
-19 -17 0
-19 18 0
17 -18 19 0
-20 -16 0
-20 19 0
16 -19 20 0
-21 -9 0
-21 -20 0
9 20 21 0
22 -23 -24 0
-22 23 -24 0
22 23 24 0
-22 -23 24 0
-21 -24 -25 0
21 24 -25 0
-21 24 25 0
21 -24 25 0
26 6 0
26 -7 0
-6 7 -26 0
28 26 0
28 27 0
-26 -27 -28 0
29 3 0
29 -17 0
-3 17 -29 0
-30 -28 0
-30 -29 0
28 29 30 0
31 -27 0
31 26 0
27 -26 -31 0
32 -30 0
32 31 0
30 -31 -32 0
9 -8 -33 0
-9 8 -33 0
9 8 33 0
-9 -8 33 0
12 -34 -35 0
-12 34 -35 0
12 34 35 0
-12 -34 35 0
-35 5 -36 0
35 -5 -36 0
-35 -5 36 0
35 5 36 0
37 -33 0
37 -36 0
33 36 -37 0
38 -22 0
38 -13 0
22 13 -38 0
-39 31 0
-39 -38 0
-31 38 39 0
40 -37 0
40 39 0
37 -39 -40 0
41 32 0
41 -40 0
-32 40 -41 0
25 41 -42 0
-25 -41 -42 0
25 -41 42 0
-25 41 42 0
43 1 0
43 -7 0
-1 7 -43 0
43 -35 -44 0
-43 35 -44 0
43 35 44 0
-43 -35 44 0
-2 10 -45 0
2 -10 -45 0
-2 -10 45 0
2 10 45 0
-46 45 0
-46 -12 0
-45 12 46 0
-47 -45 0
-47 46 0
45 -46 47 0
44 -47 -48 0
-44 47 -48 0
44 47 48 0
-44 -47 48 0
50 -49 0
50 -3 0
49 3 -50 0
51 -17 0
51 45 0
17 -45 -51 0
52 -50 0
52 51 0
50 -51 -52 0
48 -52 -53 0
-48 52 -53 0
48 52 53 0
-48 -52 53 0
-54 19 0
-54 12 0
-19 -12 54 0
14 -11 -55 0
-14 11 -55 0
14 11 55 0
-14 -11 55 0
-56 -54 0
-56 -55 0
54 55 56 0
-57 -56 0
-57 9 0
56 -9 57 0
58 -3 0
58 12 0
3 -12 -58 0
-18 58 -59 0
18 -58 -59 0
-18 -58 59 0
18 58 59 0
-60 -15 0
-60 -59 0
15 59 60 0
-61 60 0
-61 7 0
-60 -7 61 0
-62 -17 0
-62 -3 0
17 3 62 0
61 -62 -63 0
-61 62 -63 0
61 62 63 0
-61 -62 63 0
-64 57 0
-64 -63 0
-57 63 64 0
53 64 -65 0
-53 -64 -65 0
53 -64 65 0
-53 64 65 0
66 -42 0
66 -65 0
42 65 -66 0
-67 -11 0
-67 -4 0
11 4 67 0
68 -67 0
68 -16 0
67 16 -68 0
69 -27 0
69 -27 0
27 -69 0
69 18 -70 0
-69 -18 -70 0
69 -18 70 0
-69 18 70 0
71 68 0
71 70 0
-68 -70 -71 0
72 -14 0
72 7 0
14 -7 -72 0
-46 72 -73 0
46 -72 -73 0
-46 -72 73 0
46 72 73 0
31 -73 -74 0
-31 73 -74 0
31 73 74 0
-31 -73 74 0
75 58 0
75 -54 0
-58 54 -75 0
-76 -17 0
-76 75 0
17 -75 76 0
-28 76 -77 0
28 -76 -77 0
-28 -76 77 0
28 76 77 0
74 -77 -78 0
-74 77 -78 0
74 77 78 0
-74 -77 78 0
55 8 -79 0
-55 -8 -79 0
55 -8 79 0
-55 8 79 0
79 -75 -80 0
-79 75 -80 0
79 75 80 0
-79 -75 80 0
-35 75 -81 0
35 -75 -81 0
-35 -75 81 0
35 75 81 0
82 81 0
82 38 0
-81 -38 -82 0
-83 80 0
-83 82 0
-80 -82 83 0
78 83 -84 0
-78 -83 -84 0
78 -83 84 0
-78 83 84 0
85 71 0
85 -84 0
-71 84 -85 0
86 12 0
86 -4 0
-12 4 -86 0
-87 54 0
-87 69 0
-54 -69 87 0
-88 7 0
-88 -11 0
-7 11 88 0
-89 55 0
-89 88 0
-55 -88 89 0
87 89 -90 0
-87 -89 -90 0
87 -89 90 0
-87 89 90 0
-55 6 -91 0
55 -6 -91 0
-55 -6 91 0
55 6 91 0
91 -67 -92 0
-91 67 -92 0
91 67 92 0
-91 -67 92 0
93 -90 0
93 92 0
90 -92 -93 0
-94 -12 0
-94 88 0
12 -88 94 0
-95 -54 0
-95 94 0
54 -94 95 0
96 45 0
96 5 0
-45 -5 -96 0
2 96 -97 0
-2 -96 -97 0
2 -96 97 0
-2 96 97 0
-56 9 -98 0
56 -9 -98 0
-56 -9 98 0
56 9 98 0
97 98 -99 0
-97 -98 -99 0
97 -98 99 0
-97 98 99 0
100 -69 0
100 26 0
69 -26 -100 0
-22 -58 -101 0
22 58 -101 0
-22 58 101 0
22 -58 101 0
102 -101 0
102 30 0
101 -30 -102 0
-100 102 -103 0
100 -102 -103 0
-100 -102 103 0
100 102 103 0
99 103 -104 0
-99 -103 -104 0
99 -103 104 0
-99 103 104 0
105 95 0
105 -104 0
-95 104 -105 0
-106 -93 0
-106 105 0
93 -105 106 0
-107 86 0
-107 -106 0
-86 106 107 0
75 35 -108 0
-75 -35 -108 0
75 -35 108 0
-75 35 108 0
-109 -80 0
-109 108 0
80 -108 109 0
-110 12 0
-110 -2 0
-12 2 110 0
111 109 0
111 -110 0
-109 110 -111 0
-112 27 0
-112 -19 0
-27 19 112 0
112 -17 -113 0
-112 17 -113 0
112 17 113 0
-112 -17 113 0
22 5 -114 0
-22 -5 -114 0
22 -5 114 0
-22 5 114 0
115 -46 0
115 114 0
46 -114 -115 0
113 -115 -116 0
-113 115 -116 0
113 115 116 0
-113 -115 116 0
-117 -111 0
-117 -116 0
111 116 117 0
118 107 0
118 -117 0
-107 117 -118 0
119 85 0
119 -118 0
-85 118 -119 0
-120 -66 0
-120 -119 0
66 119 120 0
-121 -56 0
-121 -1 0
56 1 121 0
-120 -121 -122 0
120 121 -122 0
-120 121 122 0
120 -121 122 0
-49 114 88 0
-7 -59 0
-119 69 -11 -80 -61 -65 0
-39 -27 -51 -92 111 0
-70 -48 63 0
-58 -29 0
-46 -22 -8 -37 -52 115 0
-51 -43 101 -90 7 0
-118 -71 31 -72 51 0
96 65 103 38 62 -55 0
17 -59 67 109 0
-77 -5 -23 -17 -7 0
40 -64 -48 25 0
-86 110 -92 7 72 0
-60 -87 -111 -5 -97 0
47 63 10 0
-19 -40 46 0
-41 7 0
33 -73 -83 17 0
-57 8 -70 0
39 51 -102 0
15 42 -59 25 0
1 49 -118 0
-19 -108 47 0
79 -22 42 55 -117 0
73 80 92 4 0
3 -56 0
-89 76 54 27 -92 0
-104 -15 0
-90 37 119 -52 -112 0
-37 20 108 40 -66 0
-40 -8 81 0
-75 -6 -18 0
-88 -56 70 0
-8 -97 -30 0
10 -97 9 92 0
-116 53 -107 75 120 40 0
-94 96 -111 -78 0
86 97 43 5 60 0
-7 -91 15 -121 119 0
98 -58 53 0
-62 -100 0
96 -44 55 87 -70 0
-62 -55 0
-27 -18 0
3 74 86 114 0
14 26 0
112 -122 -71 0
-121 -54 117 0
4 91 -39 93 0
-10 -63 67 -103 0
-104 -88 54 0
-118 95 30 122 -81 34 0
32 -92 122 67 108 93 0
-91 62 -46 0
67 75 43 118 -88 -106 0
12 -28 66 -60 -121 -40 0
-75 -82 0
97 -112 -83 -36 0
-88 75 29 -89 91 0
92 -60 70 0
-51 87 -81 109 -63 0
-56 94 106 -1 41 -23 0
110 -8 65 -79 0
93 119 -94 0
9 70 -60 -106 43 72 0
-13 86 -40 -97 65 -43 0
-17 121 93 0
67 85 0
84 -33 0
-69 -25 24 15 -35 0
-75 -21 82 81 -5 73 0
-7 67 68 37 77 0
122 0
